30 60
28
9 24 0 0
9 8 0 24
9 11 12 32
9 17 9 0
4 24 21 17
4 8 26 52
1 6 26 41
1 5 26 47
4 17 18 0
3 6 25 30
3 5 22 12
12 5 14 55
12 13 9 17
14 14 0 46
2 14 28 9
2 2 21 41
8 3 12 43
8 9 22 0
12 14 0 32
12 2 9 30
6 3 22 9
6 9 14 46
2 5 25 36
2 13 28 23
3 18 25 12
3 14 23 41
3 16 27 36
3 12 20 43
